p cnf 1292 1309
c ind 820 821 822 835 842 868 929 930 943 950 0
c ind 954 956 959 975 977 980 992 993 1012 1014 0
c ind 1018 1029 1030 1034 1035 1036 1040 1042 813 928 0
c ind 843 855 814 815 927 818 819 926 1245 1246 0
c ind 1244 1243 1241 1242 1240 1235 1239 1238 1237 1236 0
c ind 1233 1234 1277 1282 1259 1268 1273 1263 1290 1276 0
c ind 1281 1258 1267 1272 1262 1289 1232 1227 1231 1230 0
c ind 1229 1228 1275 1280 1257 1266 1271 1261 1288 1274 0
c ind 1279 1256 1265 1270 1260 1287 1251 1255 1285 1225 0
c ind 1226 1218 1219 1224 1223 1222 1221 1253 1283 1220 0
c ind 1284 1254 1216 1217 1215 1278 1264 1269 1286 1214 0
c ind 816 817 1212 1213 1211 1206 1210 1209 1208 1207 0
c ind 1204 1205 1203 1198 1202 1201 1200 1199 1252 1196 0
c ind 1197 1189 1190 1195 1248 1194 1193 1192 1191 1187 0
c ind 1188 1186 1249 1185 1183 1184 1182 1177 1181 1180 0
c ind 1179 1178 1175 1176 1174 1169 1173 1172 1171 1170 0
c ind 1167 1168 1160 1161 1166 1165 1164 1163 1162 1158 0
c ind 1159 1250 1157 1156 1247 1154 1155 1153 1148 1152 0
c ind 1151 1150 1149 1146 1147 1145 1140 1144 1143 1142 0
c ind 1141 1138 1139 1131 1132 1137 1136 1135 1134 1133 0
c ind 1129 1130 1128 1127 1125 1126 1124 1119 1123 1122 0
c ind 1121 1120 1117 1118 1116 1111 1115 1114 1113 1112 0
c ind 1109 1110 1102 1103 1108 1107 1106 1105 1104 1100 0
c ind 1101 1099 1098 1096 1097 1095 1090 1094 1093 1092 0
c ind 1091 1088 1089 1087 1082 1086 1085 1084 1083 1080 0
c ind 1081 1073 1074 1079 1078 1077 1076 1075 1071 1072 0
c ind 1070 1069 1067 1068 1066 1061 1065 1064 1063 1062 0
c ind 1059 1060 1058 1053 1057 1056 1055 1054 1051 1052 0
c ind 1044 1045 1050 1049 1048 1047 1046 1024 1025 1023 0
c ind 1022 1021 1043 1033 1031 1032 1020 1019 1041 1028 0
c ind 1017 1039 1037 1038 1026 1027 1016 1015 1008 825 0
c ind 1013 1011 1009 1010 1007 1000 999 1006 1005 1004 0
c ind 1003 1002 1001 998 997 996 995 994 812 987 0
c ind 986 984 985 983 982 988 989 981 979 990 0
c ind 978 991 976 933 974 972 973 971 970 969 0
c ind 968 967 966 965 963 964 962 961 960 958 0
c ind 957 955 953 951 952 949 944 948 945 946 0
c ind 940 947 942 938 939 941 937 932 936 934 0
c ind 935 931 925 918 910 924 923 922 921 904 0
c ind 903 902 920 901 919 900 899 898 917 916 0
c ind 915 914 913 912 911 909 908 907 906 905 0
c ind 897 890 882 896 895 894 893 876 875 874 0
c ind 892 873 891 872 871 870 889 888 887 886 0
c ind 885 884 883 881 880 879 878 877 869 867 0
c ind 865 866 856 857 864 863 862 861 860 858 0
c ind 859 852 851 853 854 850 849 848 847 845 0
c ind 846 844 841 840 836 837 838 839 832 834 0
c ind 831 830 833 824 829 823 828 826 827 1 0
c ret 609 610 611 612 613 614 615 616 617 618 0
c ret 619 620 621 622 623 624 625 626 627 628 0
c ret 629 630 631 632 633 634 635 636 637 638 0
c ret 639 640 641 642 643 644 645 646 647 648 0
c ret 649 650 651 652 653 654 655 656 657 658 0
c ret 659 660 661 662 663 664 665 666 667 668 0
c ret 669 670 671 672 673 674 675 676 677 678 0
c ret 679 680 681 682 683 684 685 686 687 688 0
c ret 689 690 691 692 693 694 695 696 697 698 0
c ret 699 700 701 702 703 704 705 706 707 708 0
c ret 709 710 711 712 713 714 715 716 717 718 0
c ret 719 720 721 722 723 724 725 726 727 728 0
c ret 729 730 731 732 733 734 735 736 737 738 0
c ret 739 740 741 742 743 744 745 746 747 748 0
c ret 749 750 751 752 753 754 755 756 757 758 0
c ret 759 760 761 762 763 764 765 766 767 768 0
c ret 769 770 771 772 773 774 304 775 776 310 0
c ret 311 312 313 314 315 316 317 318 319 320 0
c ret 321 322 323 324 325 326 327 328 329 330 0
c ret 777 778 331 332 779 780 333 334 335 336 0
c ret 337 338 339 340 341 342 343 344 345 346 0
c ret 305 347 348 781 349 782 350 351 783 352 0
c ret 784 353 354 355 356 357 358 359 360 361 0
c ret 362 363 785 364 365 366 367 368 786 369 0
c ret 370 787 371 372 788 373 789 374 375 376 0
c ret 377 378 379 380 381 382 383 384 385 386 0
c ret 790 387 306 388 389 791 390 792 391 392 0
c ret 393 793 394 794 395 396 397 398 399 400 0
c ret 401 402 403 404 405 406 407 408 409 410 0
c ret 411 412 795 413 796 414 415 416 797 798 0
c ret 417 418 419 420 421 422 423 424 425 426 0
c ret 799 427 307 428 429 430 431 432 433 800 0
c ret 434 801 435 436 802 803 437 438 439 440 0
c ret 441 442 443 444 804 445 805 446 447 448 0
c ret 806 449 450 451 452 453 454 455 456 457 0
c ret 458 459 460 461 462 807 463 464 465 466 0
c ret 808 467 809 468 810 469 811 470 471 472 0
c ret 473 474 475 476 477 478 479 480 481 482 0
c ret 483 484 485 486 487 488 489 490 491 492 0
c ret 493 494 495 496 497 498 308 499 500 501 0
c ret 502 503 504 505 506 507 508 509 510 511 0
c ret 512 513 514 515 516 517 518 519 520 521 0
c ret 522 523 524 525 526 527 528 529 530 531 0
c ret 532 533 534 535 536 537 309 538 539 540 0
c ret 541 542 543 544 545 546 547 548 549 550 0
c ret 551 552 553 554 555 556 557 558 559 560 0
c ret 561 562 563 564 565 566 567 568 569 570 0
c ret 571 572 573 574 575 576 577 578 579 580 0
c ret 581 582 583 584 585 586 587 588 589 590 0
c ret 591 592 593 594 595 596 597 598 599 600 0
c ret 601 602 603 604 605 606 607 608 0
2 133 298 -299 0
2 3 298 -299 0
-2 299 0
-2 -298 0
-2 -3 -133 0
3 -4 -57 123 0
3 4 57 -113 0
3 4 57 123 0
3 -4 -57 -113 0
-3 4 -57 0
-3 -4 57 0
-3 113 -123 0
4 -5 -14 0
4 -5 51 0
-4 5 0
-4 14 -51 0
5 7 -11 0
5 6 10 -11 0
-5 11 0
-5 -7 -10 0
-5 -6 -7 0
6 1044 0
6 -1045 -1051 0
6 1045 -1052 0
-6 -1044 1045 1052 0
-6 -1044 -1045 1051 0
7 -8 -9 0
-6 7 -9 0
-7 9 0
6 -7 8 0
-6 8 0
8 1053 -1060 0
8 -1053 -1059 0
6 -8 -1053 1059 0
6 -8 1053 1060 0
9 1044 0
9 -1045 1051 0
9 1045 1052 0
-9 -1044 1045 -1052 0
-9 -1044 -1045 -1051 0
-6 10 0
10 -1053 1059 0
10 1053 1060 0
6 -10 -1053 -1059 0
6 -10 1053 -1060 0
11 -12 -1073 0
-11 1073 0
-11 12 0
12 -13 -1102 -1131 -1160 0
-12 13 0
-12 1102 0
-12 1160 0
-12 1131 0
13 -1189 -1218 0
-13 1189 0
-13 1218 0
14 -15 -50 -1268 0
14 15 -16 -50 0
-14 50 0
-14 -15 1268 0
-14 15 16 0
15 1039 -1041 0
-15 -1039 0
-15 1041 0
16 -17 -1267 0
16 17 -18 0
-16 -17 1267 0
-16 17 18 0
17 1011 -1013 0
-17 -1011 0
-17 1013 0
18 19 42 49 0
18 19 42 -45 0
-18 -19 0
-18 -42 0
-18 45 -49 0
19 -40 812 -987 0
19 20 812 987 0
-19 -812 0
-19 40 -987 0
-19 -20 987 0
20 -21 -1264 0
-20 1264 0
-20 21 0
21 -22 36 0
-21 22 0
-21 -36 0
22 -29 30 0
22 23 30 -877 0
-22 -30 0
-22 -23 29 0
-22 29 877 0
23 24 0
23 27 -876 0
23 27 882 0
-23 -24 -27 0
-23 -24 876 -882 0
24 -25 26 -870 -877 0
-24 25 0
-24 -26 0
-24 870 0
-24 877 0
25 871 872 873 0
-25 -871 0
-25 -873 0
-25 -872 0
26 874 -875 0
-26 -874 0
-26 875 0
27 28 876 882 -883 0
-27 -876 0
-27 -28 0
-27 883 0
-27 -882 0
28 890 891 0
-28 -890 0
-28 -891 0
25 29 -870 0
26 29 -870 -876 0
-29 870 0
-25 -29 876 0
-25 -26 -29 0
30 32 35 0
30 32 -34 0
30 31 32 0
-30 -32 0
-30 -31 34 -35 0
31 899 900 901 0
-31 -899 0
-31 -901 0
-31 -900 0
31 32 -898 0
32 33 -898 -904 0
-32 898 0
-31 -32 904 0
-31 -32 -33 0
33 902 -903 0
-33 -902 0
-33 903 0
34 910 911 0
34 910 918 919 0
-34 -910 0
-34 -911 -918 0
-34 -911 -919 0
33 35 -898 904 -905 0
-35 905 0
-33 -35 0
-35 898 0
-35 -904 0
36 -37 -844 0
36 -39 -844 0
36 -38 -844 0
-36 844 0
-36 37 38 39 0
37 -845 846 847 0
-37 845 0
-37 -847 0
-37 -846 0
38 850 853 854 0
-38 -850 0
-38 -854 0
-38 -853 0
39 -850 851 852 0
-39 850 0
-39 -852 0
-39 -851 0
40 -41 1265 0
20 40 41 0
-40 -41 -1265 0
-20 -40 41 0
41 953 -955 0
-41 -953 0
-41 955 0
42 -43 -44 -997 0
42 -43 -44 -998 0
-42 44 0
-42 43 0
-42 997 998 0
43 1000 1001 1002 1003 0
-43 -1003 0
-43 -1002 0
-43 -1000 0
-43 -1001 0
44 -994 -995 -996 999 0
-44 996 0
-44 -999 0
-44 994 0
-44 995 0
40 45 -46 0
-40 -45 0
-45 46 0
46 47 48 0
-46 -47 0
-46 -48 0
47 974 -976 0
-47 -974 0
-47 976 0
48 966 967 968 0
-48 -966 0
-48 -968 0
-48 -967 0
47 49 -812 0
49 -812 1266 0
-49 812 0
-47 -49 -1266 0
50 -1008 1015 0
-50 1008 0
-50 -1015 0
51 -52 -1008 0
16 18 51 0
16 51 -1008 0
18 51 -52 0
-18 -51 1008 0
-16 -51 52 0
52 54 1015 0
52 -53 54 0
52 54 1008 0
-52 -54 0
-52 53 -1008 -1015 0
53 -1016 1017 0
-53 1016 0
-53 -1017 0
54 55 -56 0
-54 -55 0
-54 56 0
55 1019 -1020 -1021 1022 0
-55 -1019 0
-55 -1022 0
-55 1021 0
-55 1020 0
56 -1008 -1015 -1016 1017 0
-56 1016 0
-56 -1017 0
-56 1008 0
-56 1015 0
57 -58 -68 0
57 -58 107 0
-57 58 0
-57 68 -107 0
58 -59 -61 0
-58 59 0
-58 61 0
59 -60 -594 -623 -652 0
-59 60 0
-59 594 0
-59 652 0
-59 623 0
60 -681 -710 -739 0
-60 681 0
-60 710 0
-60 739 0
61 62 -565 0
-61 565 0
-61 -62 0
62 -63 -64 0
62 -64 -67 0
-62 64 0
-62 63 67 0
63 536 0
63 -537 -543 0
63 537 -544 0
-63 -536 537 544 0
-63 -536 -537 543 0
-63 64 -65 0
64 -65 -66 0
-64 65 0
63 -64 66 0
65 536 0
65 -537 543 0
65 537 544 0
-65 -536 537 -544 0
-65 -536 -537 -543 0
-63 66 0
66 545 -552 0
66 -545 -551 0
63 -66 -545 551 0
63 -66 545 552 0
-63 67 0
67 -545 551 0
67 545 552 0
63 -67 -545 -551 0
63 -67 545 -552 0
68 -69 -106 -789 0
68 69 -70 -106 0
-68 106 0
-68 -69 789 0
-68 69 70 0
69 531 -533 0
-69 -531 0
-69 533 0
70 -71 -788 0
70 71 -72 0
-70 -71 788 0
-70 71 72 0
71 503 -505 0
-71 -503 0
-71 505 0
72 73 98 105 0
72 73 98 -101 0
-72 -73 0
-72 -98 0
-72 101 -105 0
73 -96 304 -479 0
73 74 304 479 0
-73 -304 0
-73 96 -479 0
-73 -74 479 0
74 -75 -785 0
-74 785 0
-74 75 0
75 76 -80 0
-75 -76 0
-75 80 0
76 -77 -336 0
76 -79 -336 0
76 -78 -336 0
-76 336 0
-76 77 78 79 0
77 -337 338 339 0
-77 337 0
-77 -339 0
-77 -338 0
78 342 345 346 0
-78 -342 0
-78 -346 0
-78 -345 0
79 -342 343 344 0
-79 342 0
-79 -344 0
-79 -343 0
80 81 -88 0
80 81 91 -369 0
-80 -81 0
-80 88 -91 0
-80 88 369 0
81 -82 85 0
81 85 390 0
-81 -85 0
-81 82 -390 0
82 -84 393 396 0
82 -83 -84 393 0
-82 -393 0
-82 84 0
-82 83 -396 0
83 394 -395 0
-83 -394 0
-83 395 0
84 391 392 0
-84 -391 0
-84 -392 0
83 -84 85 86 -87 0
84 -85 0
-85 -86 0
-83 -85 0
-85 87 0
86 402 403 0
86 402 410 411 0
-86 -402 0
-86 -403 -410 0
-86 -403 -411 0
87 -390 393 396 -397 0
-87 397 0
-87 -396 0
-87 390 0
-87 -393 0
88 89 -362 0
88 90 -362 -368 0
-88 362 0
-88 -89 368 0
-88 -89 -90 0
89 363 364 365 0
-89 -363 0
-89 -365 0
-89 -364 0
90 366 -367 0
-90 -366 0
-90 367 0
91 92 95 0
-91 -92 0
-91 -95 0
92 -93 -94 -382 0
92 -93 -94 -383 0
-92 94 0
-92 93 0
-92 382 383 0
-89 90 93 -362 -369 0
89 -93 0
-90 -93 0
-93 362 0
-93 369 0
94 368 374 -375 0
-94 375 0
-94 -374 0
-94 -368 0
-93 95 368 -374 0
93 -95 0
-95 374 0
-95 -368 0
96 -97 786 0
74 96 97 0
-96 -97 -786 0
-74 -96 97 0
97 445 -447 0
-97 -445 0
-97 447 0
98 -99 -100 -489 0
98 -99 -100 -490 0
-98 100 0
-98 99 0
-98 489 490 0
99 492 493 494 495 0
-99 -495 0
-99 -494 0
-99 -492 0
-99 -493 0
100 -486 -487 -488 491 0
-100 488 0
-100 -491 0
-100 486 0
-100 487 0
96 101 -102 0
-96 -101 0
-101 102 0
102 103 104 0
-102 -103 0
-102 -104 0
103 458 459 460 0
-103 -458 0
-103 -460 0
-103 -459 0
104 466 -468 0
-104 -466 0
-104 468 0
104 105 -304 0
105 -304 787 0
-105 304 0
-104 -105 -787 0
106 -500 507 0
-106 500 0
-106 -507 0
107 -108 -500 0
70 72 107 0
70 107 -500 0
72 107 -108 0
-72 -107 500 0
-70 -107 108 0
108 110 507 0
108 -109 110 0
108 110 500 0
-108 -110 0
-108 109 -500 -507 0
109 -508 509 0
-109 508 0
-109 -509 0
110 111 -112 0
-110 -111 0
-110 112 0
111 511 -512 -513 514 0
-111 -511 0
-111 -514 0
-111 513 0
-111 512 0
112 -500 -507 -508 509 0
-112 508 0
-112 -509 0
-112 500 0
-112 507 0
-5 113 -114 0
-5 113 122 0
5 -113 0
-113 114 -122 0
15 -50 114 -115 0
-15 -50 114 -1290 0
50 -114 0
15 -114 115 0
-15 -114 1290 0
-17 115 -1289 0
17 115 -116 0
-17 -115 1289 0
17 -115 116 0
42 116 117 121 0
42 116 117 -120 0
-42 -116 0
-116 -117 0
-116 120 -121 0
117 -119 812 -987 0
117 118 812 987 0
-117 -812 0
-117 119 -987 0
-117 -118 987 0
-21 118 -1286 0
-118 1286 0
21 -118 0
-41 119 1287 0
41 118 119 0
-41 -119 -1287 0
41 -118 -119 0
-46 119 120 0
46 -120 0
-119 -120 0
47 121 -812 0
121 -812 1288 0
-121 812 0
-47 -121 -1288 0
-52 116 122 0
115 122 -1008 0
-52 122 -1008 0
115 116 122 0
52 -115 -122 0
-116 -122 1008 0
-58 123 -124 0
-58 123 132 0
58 -123 0
-123 124 -132 0
69 -106 124 -125 0
-69 -106 124 -811 0
106 -124 0
69 -124 125 0
-69 -124 811 0
-71 125 -810 0
71 125 -126 0
-71 -125 810 0
71 -125 126 0
98 126 127 131 0
98 126 127 -130 0
-98 -126 0
-126 -127 0
-126 130 -131 0
127 -129 304 -479 0
127 128 304 479 0
-127 -304 0
-127 129 -479 0
-127 -128 479 0
-75 128 -807 0
-128 807 0
75 -128 0
-97 129 808 0
97 128 129 0
-97 -129 -808 0
97 -128 -129 0
-102 129 130 0
102 -130 0
-129 -130 0
104 131 -304 0
131 -304 809 0
-131 304 0
-104 -131 -809 0
-108 126 132 0
125 132 -500 0
-108 132 -500 0
125 126 132 0
108 -125 -132 0
-126 -132 500 0
113 133 -134 -173 0
-123 133 -134 -173 0
-133 173 0
-133 134 0
-113 123 -133 0
134 -135 -145 164 0
134 135 145 -155 0
134 135 145 164 0
134 -135 -145 -155 0
-134 135 -145 0
-134 -135 145 0
-134 155 -164 0
-5 135 -136 0
-5 135 144 0
5 -135 0
-135 136 -144 0
15 -50 136 -137 0
-15 -50 136 -1259 0
50 -136 0
15 -136 137 0
-15 -136 1259 0
-17 137 -1258 0
17 137 -138 0
-17 -137 1258 0
17 -137 138 0
42 138 139 143 0
42 138 139 -142 0
-42 -138 0
-138 -139 0
-138 142 -143 0
139 140 -812 1257 0
47 139 140 -812 0
-139 812 0
-139 -140 0
-47 -139 -1257 0
-46 140 141 0
46 -140 0
-140 -141 0
21 41 141 0
-41 141 1256 0
41 141 817 0
-41 -141 -1256 0
-21 41 -141 -817 0
-21 41 142 -817 0
-21 142 -817 987 0
21 -142 0
-142 817 0
-41 -142 -987 0
143 812 1256 0
143 812 987 0
41 143 812 0
-143 -812 0
-41 -143 -987 -1256 0
-52 138 144 0
137 144 -1008 0
-52 144 -1008 0
137 138 144 0
52 -137 -144 0
-138 -144 1008 0
-58 145 -146 0
-58 145 154 0
58 -145 0
-145 146 -154 0
69 -106 146 -147 0
-69 -106 146 -780 0
106 -146 0
69 -146 147 0
-69 -146 780 0
-71 147 -779 0
71 147 -148 0
-71 -147 779 0
71 -147 148 0
98 148 149 153 0
98 148 149 -152 0
-98 -148 0
-148 -149 0
-148 152 -153 0
149 150 -304 778 0
104 149 150 -304 0
-149 304 0
-149 -150 0
-104 -149 -778 0
-102 150 151 0
102 -150 0
-150 -151 0
75 97 151 0
-97 151 777 0
97 151 309 0
-97 -151 -777 0
-75 97 -151 -309 0
-75 97 152 -309 0
-75 152 -309 479 0
75 -152 0
-152 309 0
-97 -152 -479 0
153 304 777 0
153 304 479 0
97 153 304 0
-153 -304 0
-97 -153 -479 -777 0
-108 148 154 0
147 154 -500 0
-108 154 -500 0
147 148 154 0
108 -147 -154 0
-148 -154 500 0
-5 155 -156 0
-5 155 163 0
5 -155 0
-155 156 -163 0
15 -50 156 -157 0
-15 -50 156 -1263 0
50 -156 0
15 -156 157 0
-15 -156 1263 0
-17 157 -1262 0
17 157 -158 0
-17 -157 1262 0
17 -157 158 0
42 158 159 162 0
42 158 159 -161 0
-42 -158 0
-158 -159 0
-158 161 -162 0
159 -160 812 -987 0
21 159 812 987 0
-159 -812 0
-159 160 -987 0
-21 -159 987 0
-41 160 1260 0
21 41 160 0
-41 -160 -1260 0
-21 41 -160 0
-46 160 161 0
46 -161 0
-160 -161 0
47 162 -812 0
162 -812 1261 0
-162 812 0
-47 -162 -1261 0
-52 158 163 0
157 163 -1008 0
-52 163 -1008 0
157 158 163 0
52 -157 -163 0
-158 -163 1008 0
-58 164 -165 0
-58 164 172 0
58 -164 0
-164 165 -172 0
69 -106 165 -166 0
-69 -106 165 -784 0
106 -165 0
69 -165 166 0
-69 -165 784 0
-71 166 -783 0
71 166 -167 0
-71 -166 783 0
71 -166 167 0
98 167 168 171 0
98 167 168 -170 0
-98 -167 0
-167 -168 0
-167 170 -171 0
168 -169 304 -479 0
75 168 304 479 0
-168 -304 0
-168 169 -479 0
-75 -168 479 0
-97 169 781 0
75 97 169 0
-97 -169 -781 0
-75 97 -169 0
-102 169 170 0
102 -170 0
-169 -170 0
104 171 -304 0
171 -304 782 0
-171 304 0
-104 -171 -782 0
-108 167 172 0
166 172 -500 0
-108 172 -500 0
166 167 172 0
108 -166 -172 0
-167 -172 500 0
155 173 -174 -223 0
-164 173 -174 -223 0
-173 223 0
-173 174 0
-155 164 -173 0
174 187 202 212 0
174 -175 -202 -212 0
174 -175 202 212 0
174 187 -202 -212 0
-174 202 -212 0
-174 -202 212 0
-174 175 -187 0
-5 175 -176 0
-5 175 -185 0
-5 175 -184 0
5 -175 0
-175 176 184 185 0
176 179 -180 0
-46 176 177 -180 0
-176 180 0
-176 -177 -179 0
46 -176 -179 0
-41 177 1279 0
41 177 178 0
-41 -177 -1279 0
41 -177 -178 0
-21 178 -1278 0
-178 1278 0
21 -178 0
47 179 -812 0
179 -812 1280 0
-179 812 0
-47 -179 -1280 0
180 181 -182 0
-180 -181 0
-180 182 0
-177 181 812 -987 0
178 181 812 987 0
-181 -812 0
177 -181 -987 0
-178 -181 987 0
42 182 1008 0
17 42 182 183 0
-42 -182 0
-182 -183 -1008 0
-17 -182 -1008 0
-15 54 183 1015 0
-53 54 183 -1015 0
-54 -183 0
53 -183 -1015 0
15 -183 1015 0
-15 -50 184 -1282 0
-184 1282 0
15 -184 0
50 -184 0
-17 185 -186 -1281 0
-185 1281 0
17 -185 0
-185 186 0
183 186 -1008 0
-186 1008 0
-183 -186 0
187 -188 -199 0
187 -196 -199 0
187 -197 -199 0
-187 199 0
-187 188 196 197 0
188 191 -192 0
-102 188 189 -192 0
-188 192 0
-188 -189 -191 0
102 -188 -191 0
-97 189 800 0
97 189 190 0
-97 -189 -800 0
97 -189 -190 0
-75 190 -799 0
-190 799 0
75 -190 0
104 191 -304 0
191 -304 801 0
-191 304 0
-104 -191 -801 0
192 193 -194 0
-192 -193 0
-192 194 0
-189 193 304 -479 0
190 193 304 479 0
-193 -304 0
189 -193 -479 0
-190 -193 479 0
98 194 500 0
71 98 194 195 0
-98 -194 0
-194 -195 -500 0
-71 -194 -500 0
-69 110 195 507 0
-109 110 195 -507 0
-110 -195 0
109 -195 -507 0
69 -195 507 0
-69 -106 196 -803 0
-196 803 0
69 -196 0
106 -196 0
-71 197 -198 -802 0
-197 802 0
71 -197 0
-197 198 0
195 198 -500 0
-198 500 0
-195 -198 0
-59 62 199 201 0
-59 62 199 200 0
59 -199 0
-62 -199 0
-199 -200 -201 0
200 565 0
200 -566 -572 0
200 566 -573 0
-200 -565 566 573 0
-200 -565 -566 572 0
201 565 0
201 -566 572 0
201 566 573 0
-201 -565 566 -573 0
-201 -565 -566 -572 0
202 -203 -210 0
202 205 -208 -210 0
-202 210 0
-202 203 -205 0
-202 203 208 0
-17 203 -1008 0
203 -204 -1008 0
-203 1008 0
17 -203 204 0
-15 204 1015 -1277 0
15 -204 0
-204 1277 0
-204 -1015 0
205 -207 812 -987 0
205 206 812 987 0
-205 -812 0
-205 207 -987 0
-205 -206 987 0
-21 206 -816 0
-206 816 0
21 -206 0
-41 207 1274 0
41 206 207 0
-41 -207 -1274 0
41 -206 -207 0
42 208 209 0
42 -46 207 208 0
-42 -208 0
46 -208 -209 0
-207 -208 -209 0
47 209 -812 0
209 -812 1275 0
-209 812 0
-47 -209 -1275 0
-5 210 1008 0
-5 -204 210 0
-5 210 -211 0
5 -210 0
204 -210 211 -1008 0
183 211 -1276 0
17 183 211 0
-183 -211 0
-17 -211 1276 0
-59 -61 212 213 221 0
61 -212 0
-212 -221 0
59 -212 0
-212 -213 0
213 215 500 0
71 213 214 215 0
-213 -215 0
-213 -214 -500 0
-71 -213 -500 0
-69 214 507 -798 0
69 -214 0
-214 798 0
-214 -507 0
98 215 216 220 0
98 215 216 -219 0
-98 -215 0
-215 -216 0
-215 219 -220 0
216 -218 304 -479 0
216 217 304 479 0
-216 -304 0
-216 218 -479 0
-216 -217 479 0
-75 217 -308 0
-217 308 0
75 -217 0
-97 218 795 0
97 217 218 0
-97 -218 -795 0
97 -217 -218 0
-102 218 219 0
102 -219 0
-218 -219 0
104 220 -304 0
220 -304 796 0
-220 304 0
-104 -220 -796 0
-195 221 -222 0
-71 221 -222 797 0
-221 222 0
195 -221 -797 0
71 195 -221 0
214 222 -500 0
-222 500 0
-214 -222 0
175 223 224 -243 0
-187 223 224 -243 0
-223 243 0
-223 -224 0
-175 187 -223 0
224 225 -234 0
224 -225 234 0
-224 -225 -234 0
-224 225 234 0
-5 225 -226 0
-5 225 -233 0
-5 225 -232 0
5 -225 0
-225 226 232 233 0
226 229 -230 0
-46 226 227 -230 0
-226 230 0
-226 -227 -229 0
46 -226 -229 0
-41 227 1270 0
41 227 228 0
-41 -227 -1270 0
41 -227 -228 0
-21 228 -1269 0
-228 1269 0
21 -228 0
47 229 -812 0
229 -812 1271 0
-229 812 0
-47 -229 -1271 0
-182 230 231 0
182 -230 0
-230 -231 0
-227 231 812 -987 0
228 231 812 987 0
-231 -812 0
227 -231 -987 0
-228 -231 987 0
-15 -50 232 -1273 0
-232 1273 0
15 -232 0
50 -232 0
-17 -186 233 -1272 0
-233 1272 0
17 -233 0
186 -233 0
-199 234 -235 0
-199 234 -242 0
-199 234 -241 0
199 -234 0
-234 235 241 242 0
235 238 -239 0
-102 235 236 -239 0
-235 239 0
-235 -236 -238 0
102 -235 -238 0
-97 236 791 0
97 236 237 0
-97 -236 -791 0
97 -236 -237 0
-75 237 -790 0
-237 790 0
75 -237 0
104 238 -304 0
238 -304 792 0
-238 304 0
-104 -238 -792 0
-194 239 240 0
194 -239 0
-239 -240 0
-236 240 304 -479 0
237 240 304 479 0
-240 -304 0
236 -240 -479 0
-237 -240 479 0
-69 -106 241 -794 0
-241 794 0
69 -241 0
106 -241 0
-71 -198 242 -793 0
-242 793 0
71 -242 0
198 -242 0
243 244 267 276 -286 0
243 244 -267 -276 -286 0
-243 286 0
-243 -267 276 0
-243 -244 0
-243 267 -276 0
244 245 -256 0
244 -245 256 0
-244 -245 -256 0
-244 245 256 0
245 -249 304 0
103 245 -246 -249 0
-245 249 0
-245 246 -304 0
-103 -245 -304 0
246 423 -806 0
246 -247 -423 0
-246 247 -423 0
-246 423 806 0
-80 247 -768 0
76 -80 247 248 0
80 -247 0
-247 -248 768 0
-76 -247 768 0
248 315 805 0
-248 -315 0
-248 -805 0
249 250 -253 0
-249 -250 0
-249 253 0
246 250 251 0
246 247 250 0
247 250 -251 304 0
-246 -250 251 0
-247 -250 -251 0
-246 -250 -304 0
251 -252 479 480 0
-251 252 0
-251 -480 0
-251 -479 0
252 481 482 483 0
-252 -481 0
-252 -483 0
-252 -482 0
-59 253 254 -255 -565 0
-253 255 0
-253 565 0
59 -253 0
-253 -254 0
-64 254 536 0
-64 -67 254 0
64 -254 0
67 -254 -536 0
98 112 255 0
98 111 255 0
-98 -255 0
-111 -112 -255 0
256 257 -264 812 0
256 257 -263 -264 0
-256 264 0
-256 -257 0
-256 263 -812 0
257 258 262 0
257 260 262 0
257 258 -260 812 0
-257 -258 -260 0
-257 260 -262 0
-257 -262 -812 0
-22 258 -1247 0
-22 36 258 259 0
22 -258 0
-258 -259 1247 0
-36 -258 1247 0
259 823 1284 0
-259 -823 0
-259 -1284 0
260 -261 987 988 991 0
-260 261 0
-260 -991 0
-260 -987 0
-260 -988 0
261 989 990 0
-261 -989 0
-261 -990 0
262 931 -1285 0
-258 262 -931 0
258 -262 -931 0
-262 931 1285 0
48 -262 263 0
-48 -263 0
262 -263 0
-12 264 -265 -1073 0
-264 1073 0
12 -264 0
-264 265 0
7 265 -266 0
10 265 -266 -1044 0
-265 266 0
-7 -10 -265 0
-7 -265 1044 0
42 56 266 0
42 55 266 0
-42 -266 0
-55 -56 -266 0
267 -272 304 0
103 267 268 -272 0
-267 272 0
-267 -268 -304 0
-103 -267 -304 0
268 269 -423 0
-80 268 -271 423 0
-268 -269 -423 0
80 -268 423 0
-268 271 423 0
-80 269 -270 0
80 -269 0
-269 270 0
270 -768 -770 0
76 270 768 0
270 -768 -774 0
-76 -270 768 0
-270 -768 770 774 0
271 -768 770 776 0
-271 768 0
-271 -776 0
-271 -770 0
-253 272 -273 274 0
-253 268 272 274 0
253 -272 0
-272 -274 0
-268 -272 273 0
273 479 480 0
-273 -479 0
-273 -480 0
269 274 -275 0
252 -268 274 0
252 274 -275 0
-268 269 274 0
268 -274 275 0
-252 -269 -274 0
-251 275 304 0
-275 -304 0
251 -275 0
-13 276 277 -284 0
13 -276 0
-276 -277 0
-276 284 0
260 277 -278 0
277 282 283 0
277 -278 282 0
-277 278 -283 0
-260 -277 -282 0
-277 278 -282 0
278 279 -931 0
-22 278 -281 931 0
-278 -279 -931 0
22 -278 931 0
-278 281 931 0
-22 279 -280 0
22 -279 0
-279 280 0
280 -1247 -1249 0
36 280 1247 0
280 -1247 -1253 0
-36 -280 1247 0
-280 -1247 1249 1253 0
281 -1247 1249 1255 0
-281 1247 0
-281 -1255 0
-281 -1249 0
260 282 812 0
-279 282 812 0
-282 -812 0
-260 279 -282 0
48 283 -812 0
-283 812 0
-48 -283 0
-265 284 -285 -1073 0
-284 1073 0
-284 285 0
265 -284 0
285 -1102 -1131 -1160 0
-285 1102 0
-285 1131 0
-285 1160 0
286 287 290 293 -294 0
286 -287 -290 293 -294 0
-286 -293 0
-286 287 -290 0
-286 294 0
-286 -287 290 0
-80 -253 287 -288 289 0
-287 288 0
-287 -289 0
80 -287 0
253 -287 0
288 -768 770 0
-288 768 0
-288 -770 0
-103 289 -304 0
-289 304 0
103 -289 0
-22 -284 290 291 -292 0
-290 292 0
22 -290 0
284 -290 0
-290 -291 0
-48 291 -812 0
-291 812 0
48 -291 0
-13 292 -1247 1249 0
-292 1247 0
-292 -1249 0
13 -292 0
-8 -9 -10 293 0
8 -293 0
9 -293 0
10 -293 0
36 -266 294 -295 -297 0
-36 -294 0
-294 297 0
-294 295 0
266 -294 0
-12 291 295 -296 -1073 0
-295 296 0
-295 1073 0
12 -295 0
-291 -295 0
296 -815 -816 0
296 -814 817 0
296 -814 -816 0
296 -815 817 0
-296 816 -817 0
-296 814 815 0
-29 30 297 0
23 30 297 0
-30 -297 0
-23 29 -297 0
-65 -66 -67 298 0
65 -298 0
66 -298 0
67 -298 0
-88 299 -300 0
-92 299 -300 0
-95 299 -300 0
-299 300 0
88 92 95 -299 0
76 81 -255 300 -301 0
-76 -300 0
-300 301 0
255 -300 0
-81 -300 0
-60 289 301 -302 -303 0
-301 303 0
60 -301 0
-301 302 0
-289 -301 0
302 -565 -594 -623 -652 0
-302 652 0
-302 565 0
-302 623 0
-302 594 0
303 -307 -308 0
303 -306 309 0
303 -306 -308 0
303 -307 309 0
-303 308 -309 0
-303 306 307 0
1 2 0
-1 -2 0
1291 0

